Sat 19 May 19:31:36 CEST 2018
CPXPARAM_TimeLimit                               45
CPXPARAM_Threads                                 1
CPXPARAM_MIP_Strategy_CallbackReducedLP          0
Tried aggregator 3 times.
MIP Presolve eliminated 4021 rows and 3585 columns.
MIP Presolve modified 5336 coefficients.
Aggregator did 11170 substitutions.
Reduced MIP has 19828 rows, 17881 columns, and 46854 nonzeros.
Reduced MIP has 15462 binaries, 13 generals, 0 SOSs, and 3322 indicators.
Presolve time = 0.18 sec. (482.81 ticks)
Probing time = 0.24 sec. (135.60 ticks)
Tried aggregator 3 times.
Aggregator did 8621 substitutions.
Reduced MIP has 11207 rows, 9260 columns, and 29612 nonzeros.
Reduced MIP has 6841 binaries, 2419 generals, 0 SOSs, and 3322 indicators.
Presolve time = 0.06 sec. (88.01 ticks)
Probing time = 0.15 sec. (112.62 ticks)
Tried aggregator 1 time.
Reduced MIP has 11207 rows, 9260 columns, and 29612 nonzeros.
Reduced MIP has 6841 binaries, 2419 generals, 0 SOSs, and 3322 indicators.
Presolve time = 0.03 sec. (29.52 ticks)
Probing time = 0.01 sec. (7.22 ticks)
Clique table members: 446045.
MIP emphasis: balance optimality and feasibility.
MIP search method: dynamic search.
Parallel mode: none, using 1 thread.
Root relaxation solution time = 0.03 sec. (44.95 ticks)

        Nodes                                         Cuts/
   Node  Left     Objective  IInf  Best Integer    Best Bound    ItCnt     Gap

      0     0        0.0000  4205                      0.0000      465         
      0     0        0.0000  4034               Cliques: 2901      717         
      0     0        0.0000  3863               Cliques: 2901      945         
      0     0        0.0000  3343               Cliques: 2901     1129         
      0     0        0.0000  3172               Cliques: 2901     1328         
      0     0        0.0000  3206               Cliques: 2901     1742         
      0     0        0.0000  3241               Cliques: 2901     2102         
      0     2        0.0000  3241                      0.0000     2102         
Elapsed time = 43.97 sec. (48464.92 ticks, tree = 0.01 MB, solutions = 0)
      4     6        0.0000  2190                      0.0000     2716         
      6     8        0.0000  2181                      0.0000     2970         

Clique cuts applied:  17406

Root node processing (before b&c):
  Real time             =   43.93 sec. (48437.44 ticks)
Sequential b&c:
  Real time             =    1.08 sec. (990.80 ticks)
                          ------------
Total (root+branch&cut) =   45.01 sec. (49428.24 ticks)
